Set parameter TokenServer to value "opt-license.discovery.wisc.edu"
Set parameter TimeLimit to value 1800
Gurobi Optimizer version 9.5.1 build v9.5.1rc2 (linux64)
Thread count: 40 physical cores, 80 logical processors, using up to 32 threads
Optimize a model with 1681 rows, 1600 columns and 6360 nonzeros
Model fingerprint: 0x0f4d7552
Variable types: 0 continuous, 1600 integer (1600 binary)
Coefficient statistics:
  Matrix range     [1e+00, 7e+02]
  Objective range  [1e+00, 8e+00]
  Bounds range     [1e+00, 1e+00]
  RHS range        [1e+00, 8e+00]
Presolve removed 156 rows and 0 columns
Presolve time: 0.04s
Presolved: 1525 rows, 1600 columns, 6710 nonzeros
Variable types: 0 continuous, 1600 integer (1600 binary)
Found heuristic solution: objective 91.8352601

Root relaxation: objective 3.467966e+01, 360 iterations, 0.02 seconds (0.02 work units)

    Nodes    |    Current Node    |     Objective Bounds      |     Work
 Expl Unexpl |  Obj  Depth IntInf | Incumbent    BestBd   Gap | It/Node Time

     0     0   34.67966    0  133   91.83526   34.67966  62.2%     -    0s
H    0     0                      57.2932644   34.67966  39.5%     -    0s
H    0     0                      47.0995997   34.67966  26.4%     -    0s
H    0     0                      46.9280268   34.67966  26.1%     -    0s
H    0     0                      42.6076989   34.67966  18.6%     -    0s
     0     0   35.07626    0  153   42.60770   35.07626  17.7%     -    0s
H    0     0                      42.0219124   35.07626  16.5%     -    0s
     0     0   35.36797    0  131   42.02191   35.36797  15.8%     -    0s
H    0     0                      41.2579804   35.36797  14.3%     -    0s
     0     0   35.55806    0  148   41.25798   35.55806  13.8%     -    0s
     0     0   35.70566    0  163   41.25798   35.70566  13.5%     -    0s
     0     0   35.74514    0  159   41.25798   35.74514  13.4%     -    0s
     0     0   35.92320    0  145   41.25798   35.92320  12.9%     -    0s
     0     0   35.92901    0  151   41.25798   35.92901  12.9%     -    0s
     0     0   35.98229    0  162   41.25798   35.98229  12.8%     -    0s
     0     0   35.98388    0  158   41.25798   35.98388  12.8%     -    0s
     0     0   35.98398    0  159   41.25798   35.98398  12.8%     -    0s
H    0     0                      40.8503396   35.98398  11.9%     -    0s
     0     0   35.98398    0  159   40.85034   35.98398  11.9%     -    0s
H    0     0                      39.7924172   35.98398  9.57%     -    1s
     0     0   35.98398    0  133   39.79242   35.98398  9.57%     -    1s
     0     0   35.98398    0  134   39.79242   35.98398  9.57%     -    1s
H    0     0                      38.9639900   35.98398  7.65%     -    1s
     0     0   35.98398    0  132   38.96399   35.98398  7.65%     -    1s
     0     0   35.98398    0  146   38.96399   35.98398  7.65%     -    1s
     0     0   35.98398    0  157   38.96399   35.98398  7.65%     -    1s
     0     0   35.98398    0  159   38.96399   35.98398  7.65%     -    1s
     0     0   35.99495    0  157   38.96399   35.99495  7.62%     -    1s
     0     0   35.99502    0  158   38.96399   35.99502  7.62%     -    1s
     0     0   36.04922    0  142   38.96399   36.04922  7.48%     -    1s
     0     0   36.05586    0  140   38.96399   36.05586  7.46%     -    1s
     0     0   36.07038    0  150   38.96399   36.07038  7.43%     -    1s
     0     0   36.07692    0  147   38.96399   36.07692  7.41%     -    1s
     0     0   36.07692    0  148   38.96399   36.07692  7.41%     -    1s
     0     0   36.07900    0  157   38.96399   36.07900  7.40%     -    1s
H    0     0                      38.5497765   36.07900  6.41%     -    1s
     0     0   36.08009    0  158   38.54978   36.08009  6.41%     -    1s
     0     0   36.08734    0  157   38.54978   36.08734  6.39%     -    1s
     0     0   36.08734    0  133   38.54978   36.08734  6.39%     -    1s
     0     0   36.08734    0  140   38.54978   36.08734  6.39%     -    1s
     0     0   36.08734    0  124   38.54978   36.08734  6.39%     -    1s
     0     0   36.08734    0  152   38.54978   36.08734  6.39%     -    1s
     0     0   36.08734    0  154   38.54978   36.08734  6.39%     -    1s
     0     0   36.08734    0  155   38.54978   36.08734  6.39%     -    1s
     0     0   36.08734    0  157   38.54978   36.08734  6.39%     -    1s
     0     0   36.14083    0  144   38.54978   36.14083  6.25%     -    2s
     0     0   36.14240    0  142   38.54978   36.14240  6.24%     -    2s
     0     0   36.14352    0  144   38.54978   36.14352  6.24%     -    2s
     0     0   36.14352    0  143   38.54978   36.14352  6.24%     -    2s
     0     2   36.14723    0  143   38.54978   36.14723  6.23%     -    2s
H  710   543                      38.4852814   36.25925  5.78%  38.1    3s
H  720   543                      37.9574173   36.25925  4.47%  38.1    3s
* 1540   899              25      37.8994949   36.37062  4.03%  36.4    3s
H 1737   908                      37.7924172   36.37062  3.76%  36.5    4s
* 1904   974              21      37.5497765   36.37062  3.14%  36.4    4s
  4162  1096   37.29020    7   52   37.54978   36.77163  2.07%  34.3    5s

Cutting planes:
  Lift-and-project: 13
  MIR: 30
  StrongCG: 27
  GUB cover: 17
  Zero half: 2
  Mod-K: 1

Explored 8353 nodes (259053 simplex iterations) in 6.44 seconds (3.43 work units)
Thread count was 32 (of 80 available processors)

Solution count 10: 37.5498 37.7924 37.8995 ... 41.258

Optimal solution found (tolerance 1.00e-04)
Best objective 3.754977647648e+01, best bound 3.754977647648e+01, gap 0.0000%
